100 61748

 269 295
316 355
126 565
656 253
40 916
598 266
870 896
891 104
450 657
460 907
77 169
671 969
822 453
245 946
422 677
839 302
878 189
244 304
551 94
193 144
102 105
912 423
821 796
761 142
49 131
844 644
439 198
343 98
547 167
92 924
757 822
583 355
187 656
189 538
185 678
58 683
588 629
841 267
18 40
50 456
573 891
820 570
327 833
350 992
597 164
275 692
27 675
736 980
626 986
581 687
742 244
676 799
206 108
353 781
127 911
130 383
677 631
859 431
963 438
629 311
185 763
106 937
813 941
579 175
619 875
782 738
704 253
835 68
57 268
748 913
851 634
287 722
641 258
315 720
958 29
34 376
580 627
167 147
713 824
176 236
236 653
495 406
915 597
212 108
145 17
759 910
501 270
912 820
147 1000
646 212
233 266
157 663
684 966
594 916
755 503
310 796
448 136
406 978
985 965
293 164
